135 5
10 10 10 10 10 

0 0 0 0 0 0 2 2 14 
0 0 0 0 0 0 4 3 4 7 12 
1 0 0 0 0 2 4 11 10 9 5 
6 0 0 0 0 5 3 10 6 5 
6 0 0 0 0 8 1 8 
2 0 0 0 0 3 1 9 
1 0 0 0 0 6 1 8 
1 0 0 0 0 10 1 13 
1 0 0 0 0 3 1 13 
6 0 0 0 0 4 1 13 
7 0 0 0 0 6 1 13 
3 0 0 0 0 3 1 13 
0 0 0 0 0 0 1 26 
0 0 0 0 0 0 4 15 17 23 24 
4 0 0 3 0 0 5 22 21 20 18 16 
10 0 0 6 0 0 1 19 
6 0 0 2 0 0 1 18 
10 0 0 5 0 0 1 25 
3 0 0 8 0 0 1 25 
3 0 0 5 0 0 1 25 
5 0 0 4 0 0 1 25 
7 0 0 10 0 0 1 25 
1 0 0 6 0 0 1 25 
3 0 0 1 0 0 1 25 
0 0 0 0 0 0 1 26 
0 0 0 0 0 0 2 27 39 
0 0 0 0 0 0 4 28 30 36 37 
5 0 0 0 1 0 3 35 34 29 
7 0 0 0 5 0 2 32 31 
5 0 0 0 6 0 1 33 
9 0 0 0 5 0 1 38 
9 0 0 0 6 0 1 38 
1 0 0 0 6 0 1 38 
7 0 0 0 4 0 1 38 
2 0 0 0 3 0 1 38 
4 0 0 0 7 0 1 38 
2 0 0 0 7 0 1 38 
0 0 0 0 0 0 1 51 
0 0 0 0 0 0 4 40 41 43 49 
6 1 0 0 0 0 4 48 47 44 42 
6 7 0 0 0 0 4 48 46 45 44 
3 5 0 0 0 0 2 46 45 
6 7 0 0 0 0 2 47 44 
10 3 0 0 0 0 1 50 
3 4 0 0 0 0 1 50 
9 6 0 0 0 0 1 50 
6 7 0 0 0 0 1 50 
7 4 0 0 0 0 1 50 
5 6 0 0 0 0 1 50 
0 0 0 0 0 0 1 51 
0 0 0 0 0 0 2 52 64 
0 0 0 0 0 0 4 53 54 56 57 
5 0 0 1 0 0 3 62 58 55 
4 0 0 5 0 0 3 61 60 58 
3 0 0 5 0 0 2 60 59 
1 0 0 4 0 0 2 61 58 
8 0 0 8 0 0 1 59 
2 0 0 5 0 0 1 63 
10 0 0 3 0 0 1 63 
9 0 0 4 0 0 1 63 
4 0 0 7 0 0 1 63 
4 0 0 8 0 0 1 63 
0 0 0 0 0 0 1 76 
0 0 0 0 0 0 5 65 66 68 73 74 
1 0 1 0 0 0 3 72 71 67 
6 0 5 0 0 0 3 71 70 67 
5 0 4 0 0 0 1 69 
7 0 5 0 0 0 1 70 
3 0 6 0 0 0 1 75 
3 0 7 0 0 0 1 75 
6 0 7 0 0 0 1 75 
3 0 7 0 0 0 1 75 
8 0 1 0 0 0 1 75 
10 0 7 0 0 0 1 75 
0 0 0 0 0 0 1 76 
0 0 0 0 0 0 2 77 99 
0 0 0 0 0 0 6 78 79 80 81 82 83 
8 1 0 0 1 0 5 92 90 86 85 84 
10 3 0 0 6 0 5 96 90 88 87 86 
10 2 0 0 3 0 4 97 90 85 84 
7 8 0 0 4 0 4 97 90 88 84 
7 3 0 0 7 0 5 97 96 95 88 87 
7 3 0 0 6 0 3 97 90 84 
7 3 0 0 8 0 4 96 95 91 89 
1 10 0 0 5 0 3 96 95 88 
3 6 0 0 4 0 4 97 95 94 91 
10 6 0 0 4 0 2 91 89 
7 5 0 0 6 0 2 94 91 
9 5 0 0 4 0 2 94 93 
2 4 0 0 8 0 2 94 93 
10 4 0 0 5 0 1 93 
6 4 0 0 2 0 1 93 
9 7 0 0 5 0 1 98 
6 8 0 0 4 0 1 98 
8 8 0 0 5 0 1 98 
4 5 0 0 4 0 1 98 
8 5 0 0 9 0 1 98 
0 0 0 0 0 0 1 135 
0 0 0 0 0 0 4 100 102 108 109 
4 0 0 0 1 0 2 107 101 
4 0 0 0 6 0 4 106 105 104 103 
2 0 0 0 4 0 2 104 103 
4 0 0 0 4 0 1 110 
2 0 0 0 5 0 1 110 
10 0 0 0 6 0 1 110 
8 0 0 0 7 0 1 110 
2 0 0 0 6 0 1 110 
5 0 0 0 5 0 1 110 
6 0 0 0 6 0 1 110 
0 0 0 0 0 0 2 111 123 
0 0 0 0 0 0 4 112 113 114 121 
10 1 0 0 0 0 3 120 118 115 
9 8 0 0 0 0 3 118 117 116 
7 7 0 0 0 0 2 119 117 
5 3 0 0 0 0 1 116 
2 6 0 0 0 0 1 122 
9 3 0 0 0 0 1 122 
3 6 0 0 0 0 1 122 
10 4 0 0 0 0 1 122 
9 7 0 0 0 0 1 122 
9 5 0 0 0 0 1 122 
0 0 0 0 0 0 1 135 
0 0 0 0 0 0 3 124 125 126 
1 0 0 0 0 1 4 130 129 128 127 
8 0 0 0 0 5 3 130 129 128 
1 0 0 0 0 4 3 131 128 127 
4 0 0 0 0 5 2 133 132 
3 0 0 0 0 6 1 132 
1 0 0 0 0 3 1 133 
2 0 0 0 0 6 1 132 
6 0 0 0 0 6 1 132 
10 0 0 0 0 8 1 134 
4 0 0 0 0 6 1 134 
0 0 0 0 0 0 1 135 
0 0 0 0 0 0 0 
